PARAMETER_FILE = even/LKH_uncomplete_graph/x10/seg/par/random116.par
PROBLEM_FILE = even/LKH_uncomplete_graph/x10/seg/mat/random116.tsp
Successes/Runs = 0/10
Cost.min = 829, Cost.avg = 829.00, Cost.max = 829
Gap.min = 0.0000%, Gap.avg = 0.0000%, Gap.max = 0.0000%
Trials.min = 1000, Trials.avg = 1000.0, Trials.max = 1000
Time.min = 0.14 sec., Time.avg = 0.15 sec., Time.max = 0.16 sec.
Time.total = 1.61 sec.
请按任意键继续. . . 
